# Objective value = 95605
x66 1
x67 0
x68 0
x69 0
x70 0
x71 1
x72 0
x73 0
x74 1
x75 1
x76 0
x77 0
x78 1
x79 1
x80 1
x81 1
x82 1
x83 0
x84 0
x85 0
x86 0
x87 0
x88 0
x89 1
x90 1
x91 1
x92 1
x93 0
x94 0
x95 0
x96 1
x97 1
x98 1
x99 1
x100 0
x101 1
x102 0
x103 0
x104 1
x105 1
x106 1
x107 1
x108 0
x109 1
x110 1
x111 0
x112 0
x113 1
x114 1
x115 1
x116 1
x117 0
x118 1
x119 1
x120 1
x121 1
x122 1
x123 0
x124 0
x125 0
x126 0
x127 1
x128 0
x129 0
x130 0
x131 0
x132 0
x133 0
x134 1
x135 1
x136 1
x137 1
x138 0
x139 1
x140 1
x141 1
x142 1
x143 0
x144 0
x145 0
x146 1
x147 1
x148 1
x149 1
x150 0
x151 1
x152 1
x153 1
x154 1
x155 0
x156 1
x157 0
x158 0
x159 1
x160 1
x161 1
x162 1
x163 0
x164 1
x165 1
x166 1
x167 1
x168 0
x169 1
x170 1
x171 0
x172 0
x173 1
x174 1
x175 1
x176 1
x177 0
x178 1
x179 1
x180 1
x181 1
x182 0
x183 1
x184 1
x185 1
x186 1
x187 1
x188 0
x189 0
x190 0
x191 0
x192 1
x193 0
x194 0
x195 0
x196 0
x197 1
x198 0
x199 0
x200 0
x201 0
x202 0
x203 0
x204 1
x205 1
x206 1
x207 1
x208 1
x209 0
x210 0
x211 1
x212 1
x213 1
x214 1
x215 1
x216 1
x217 1
x218 1
x219 0
x220 0
x221 0
x222 1
x223 0
x224 0
x225 0
x226 0
x227 0
x228 1
x229 1
x230 1
x231 1
x232 0
x233 1
x234 1
x235 0
x236 0
x237 1
x238 0
x239 1
x240 1
x241 1
x242 1
x243 1
x244 1
x245 0
x246 1
x247 0
x248 1
x249 0
x250 1
x251 1
x252 1
x253 1
x254 1
x255 1
x256 0
x257 1
x258 1
x259 0
x260 1
x261 0
x262 1
x263 1
x264 0
x265 1
x266 1
x267 1
x268 0
x269 1
x270 1
x271 1
x272 1
x273 0
x274 1
x275 0
x276 0
x277 0
x278 1
x279 0
x280 0
x281 1
x282 0
x283 0
x284 0
x285 0
x286 1
x287 1
x288 0
x289 0
x290 0
x291 1
x292 0
x293 0
x294 0
x295 1
x296 0
x297 0
x298 0
x299 0
x300 1
x301 0
x302 1
x303 0
x304 1
x305 1
x306 0
x307 1
x308 1
x309 1
x310 0
x311 1
x312 1
x313 1
x314 1
x315 0
x316 0
x317 0
x318 1
x319 1
x320 1
x321 1
x322 0
x323 1
x324 1
x325 1
x326 0
x327 1
x328 1
x329 1
x330 1
x331 0
x332 0
x333 1
x334 0
x335 1
x336 1
x337 1
x338 1
x339 0
x340 1
x341 1
x342 1
x343 0
x344 1
x345 1
x346 1
x347 1
x348 0
x349 0
x350 1
x351 1
x352 0
x353 0
x354 1
x355 1
x356 1
x357 1
x358 0
x359 1
x360 1
x361 0
x362 1
x363 1
x364 1
x365 1
x366 0
x367 0
x368 1
x369 1
x370 1
x371 1
x372 0
x373 1
x374 0
x375 0
x376 0
x377 1
x378 0
x379 0
x380 1
x381 0
x382 0
x383 0
x384 0
x385 1
x386 1
x387 0
x388 0
x389 0
x390 0
x391 0
x392 1
x393 1
x394 1
x395 1
x396 1
x397 0
x398 1
x399 1
x400 0
x401 1
x402 1
x403 1
x404 1
x405 0
x406 0
x407 1
x408 1
x409 1
x410 1
x411 0
x412 0
x413 1
x414 1
x415 1
x416 1
x417 1
x418 0
x419 1
x420 1
x421 0
x422 1
x423 1
x424 1
x425 1
x426 0
x427 0
x428 1
x429 1
x430 1
x431 1
x432 0
x433 1
x434 0
x435 0
x436 1
x437 1
x438 1
x439 1
x440 1
x441 1
x442 0
x443 1
x444 1
x445 1
x446 1
x447 0
x448 0
x449 0
x450 1
x451 0
x452 0
x453 1
x454 0
x455 0
x456 0
x457 0
x458 0
x459 1
x460 1
x461 1
x462 1
x463 1
x464 1
x465 0
x466 1
x467 1
x468 1
x469 0
x470 0
x471 0
x472 1
x473 1
x474 1
x475 1
x476 1
x477 1
x478 0
x479 1
x480 0
x481 1
x482 0
x483 1
x484 0
x485 0
x486 1
x487 0
x488 1
x489 1
x490 1
x491 1
x492 1
x493 1
x494 0
x495 1
x496 0
x497 1
x498 1
x499 0
x500 1
x501 1
x502 0
x503 1
x504 1
x505 1
x506 1
x507 1
x508 1
x509 0
x510 1
x511 0
x512 1
x513 1
x514 1
x515 1
x516 0
x517 0
x518 1
x519 0
x520 0
x521 1
x522 0
x523 0
x524 0
x525 1
x526 0
x527 1
x528 0
x529 0
x530 0
x531 0
x532 0
x533 1
x534 1
x535 0
x536 1
x537 1
x538 1
x539 1
x540 1
x541 1
x542 0
x543 1
x544 0
x545 1
x546 1
x547 1
x548 1
x549 0
x550 0
x551 1
x552 1
x553 0
x554 1
x555 1
x556 0
x557 1
x558 1
x559 1
x560 1
x561 1
x562 0
x563 1
x564 1
x565 1
x566 1
x567 0
x568 1
x569 0
x570 1
x571 1
x572 0
x573 1
x574 1
x575 0
x576 1
x577 1
x578 1
x579 0
x580 1
x581 0
x582 1
x583 1
x584 1
x585 1
x586 0
x587 1
x588 1
x589 0
x590 1
x591 1
x592 0
x593 1
x594 1
x595 0
x596 1
x597 1
x598 1
x599 1
x600 1
x601 0
x602 1
x603 1
x604 1
x605 1
x606 0
x607 1
x608 1
x609 1
x610 1
x611 0
x612 0
x613 1
x614 0
x615 1
x616 1
x617 0
x618 0
x619 0
x620 0
x621 0
x622 1
x623 0
x624 0
x625 0
x626 0
x627 1
x628 0
x629 0
x630 0
x631 0
x632 1
x633 0
x634 0
x635 0
x636 0
x637 1
x638 1
x639 0
x640 1
x641 0
x642 0
x643 0
x644 1
x645 0
x646 0
x647 0
x648 0
x649 1
x650 0
x651 0
x652 0
x653 0
x654 1
x655 0
x656 1
x657 1
x658 1
x659 1
x660 0
x661 1
x662 1
x663 0
x664 1
x665 1
x666 1
x667 0
x668 1
x669 1
x670 1
x671 1
x672 0
x673 1
x674 1
x675 1
x676 1
x677 0
x678 0
x679 0
x680 0
x681 1
x682 1
x683 1
x684 0
x685 1
x686 1
x687 0
x688 1
x689 1
x690 1
x691 0
x692 1
x693 1
x694 1
x695 1
x696 0
x697 1
x698 1
x699 1
x700 1
x701 0
x702 0
x703 1
x704 0
x705 1
x706 1
x707 1
x708 1
x709 0
x710 1
x711 1
x712 0
x713 1
x714 1
x715 1
x716 0
x717 1
x718 1
x719 1
x720 1
x721 0
x722 1
x723 1
x724 1
x725 1
x726 0
x727 0
x728 1
x729 1
x730 0
x731 0
x732 1
x733 1
x734 1
x735 1
x736 1
x737 1
x738 0
x739 1
x740 1
x741 1
x742 0
x743 1
x744 1
x745 1
x746 0
x747 0
x748 0
x749 1
x750 1
x751 1
x752 0
x753 1
x754 1
x755 0
x756 1
x757 1
x758 1
x759 0
x760 1
x761 1
x762 1
x763 1
x764 1
x765 0
x766 0
x767 1
x768 1
x769 1
x770 1
x771 1
x772 1
x773 0
x774 1
x775 1
x776 1
x777 0
x778 1
x779 1
x780 1
x781 1
x782 1
x783 1
x784 1
x785 1
x786 0
x787 0
x788 0
x789 0
x790 0
x791 0
x792 1
x793 0
x794 1
x795 0
x796 1
x797 0
x798 0
x799 1
x800 0
x801 0
x802 0
x803 0
x804 1
x805 1
x806 0
x807 1
x808 0
x809 0
x810 0
x811 0
x812 0
x813 0
x814 1
x815 0
x816 0
x817 1
x818 0
x819 0
x820 1
x821 0
x822 0
x823 0
x824 1
x825 0
x826 1
x827 1
x828 0
x829 1
x830 1
x831 1
x832 1
x833 1
x834 1
x835 0
x836 1
x837 1
x838 0
x839 1
x840 1
x841 1
x842 1
x843 1
x844 1
x845 0
x846 0
x847 0
x848 1
x849 1
x850 0
x851 1
x852 1
x853 0
x854 1
x855 1
x856 1
x857 0
x858 1
x859 1
x860 0
x861 1
x862 1
x863 1
x864 1
x865 1
x866 1
x867 0
x868 0
x869 1
x870 0
x871 1
x872 1
x873 0
x874 1
x875 1
x876 1
x877 1
x878 1
x879 1
x880 0
x881 1
x882 1
x883 0
x884 1
x885 0
x886 1
x887 1
x888 1
x889 1
x890 0
x891 0
x892 1
x893 1
x894 0
x895 1
x896 1
x897 0
x898 1
x899 1
x900 0
x901 1
x902 1
x903 1
x904 1
x905 1
x906 1
x907 1
x908 1
x909 1
x910 0
x911 1
x912 1
x913 1
x914 0
x915 0
x916 1
x917 1
x918 1
x919 1
x920 0
x921 0
x922 1
x923 0
x924 0
x925 1
x926 0
x927 0
x928 0
x929 1
x930 1
x931 0
x932 0
x933 0
x934 0
x935 1
x936 0
x937 0
x938 0
x939 1
x940 1
x941 0
x942 0
x943 0
x944 0
x945 0
x946 1
x947 1
x948 0
x949 1
x950 1
x951 0
x952 1
x953 1
x954 1
x955 1
x956 1
x957 0
x958 1
x959 1
x960 1
x961 0
x962 1
x963 1
x964 1
x965 0
x966 0
x967 1
x968 1
x969 1
x970 1
x971 0
x972 0
x973 1
x974 1
x975 0
x976 1
x977 0
x978 0
x979 1
x980 1
x981 1
x982 1
x983 1
x984 1
x985 1
x986 1
x987 1
x988 0
x989 1
x990 1
x991 1
x992 0
x993 0
x994 1
x995 1
x996 1
x997 1
x998 0
x999 1
x1000 0
x1001 1
x1002 1
x1003 1
x1004 1
x1005 0
x1006 0
x1007 1
x1008 0
x1009 1
x1010 1
x1011 1
x1012 1
x1013 0
x1014 1
x1015 1
x1016 1
x1017 1
x1018 1
x1019 1
x1020 0
x1021 0
x1022 1
x1023 1
x1024 1
x1025 1
x1026 0
x1027 1
x1028 1
x1029 0
x1030 1
x1031 1
x1032 1
x1033 1
x1034 0
x1035 1
x1036 1
x1037 0
x1038 1
x1039 1
x1040 0
x1041 1
x1042 0
x1043 1
x1044 1
x1045 1
x1046 1
x1047 1
x1048 1
x1049 0
x1050 0
x1051 1
x1052 1
x1053 1
x1054 1
x1055 0
x1056 1
x1057 1
x1058 1
x1059 1
x1060 1
x1061 0
x1062 0
x1063 0
x1064 1
x1065 0
x1066 0
x1067 1
x1068 0
x1069 0
x1070 0
x1071 1
x1072 1
x1073 0
x1074 0
x1075 0
x1076 0
x1077 0
x1078 0
x1079 1
x1080 1
x1081 0
x1082 0
x1083 0
x1084 0
x1085 1
x1086 0
x1087 0
x1088 0
x1089 0
x1090 0
x1091 1
x1092 1
x1093 1
x1094 1
x1095 0
x1096 1
x1097 1
x1098 0
x1099 1
x1100 1
x1101 1
x1102 1
x1103 0
x1104 1
x1105 1
x1106 1
x1107 1
x1108 1
x1109 1
x1110 0
x1111 0
x1112 1
x1113 1
x1114 1
x1115 1
x1116 0
x1117 1
x1118 1
x1119 1
x1120 1
x1121 0
x1 1
x2 1
x3 0
x4 0
x5 0
x6 0
x7 1
x8 0
x9 0
x10 0
x11 0
x12 1
x13 0
x14 0
x15 0
x16 0
x17 1
x18 0
x19 0
x20 1
x21 0
x22 0
x23 0
x24 0
x25 1
x26 1
x27 0
x28 0
x29 0
x30 0
x31 1
x32 0
x33 0
x34 0
x35 1
x36 0
x37 0
x38 0
x39 0
x40 1
x41 0
x42 0
x43 0
x44 0
x45 1
x46 1
x47 0
x48 0
x49 0
x50 0
x51 0
x52 0
x53 1
x54 1
x55 0
x56 0
x57 0
x58 0
x59 1
x60 0
x61 0
x62 0
x63 0
x64 1
x65 0
